000 000 000 000 000 000 000 000 -99 -99 -99 -99 -99 000 000 000 -99 -99 000 000 -99 -99 -99 000 000 -99 -99 -99 -99 -99 -99
000 000 000 000 000 000 000 000 -99 -99 -99 -99 -99 -99 000 000 -99 -99 -99 000 -99 -99 -99 -99 000 -99 -99 -99 -99 -99 -99
-99 000 000 000 000 000 000 -99 -99 -99 -99 -99 -99 -99 000 000 000 -99 -99 000 -99 -99 -99 000 000 000 -99 000 -99 -99 -99
-99 000 000 000 000 000 000 -99 -99 000 -99 -99 000 -99 000 000 000 -99 -99 000 000 -99 000 000 000 000 -99 000 -99 -99 -99
000 000 000 000 000 000 000 000 -99 000 -99 -99 000 000 -99 -99 -99 000 -99 000 000 000 000 000 000 000 -99 -99 -99 -99 -99
000 000 000 000 000 000 000 000 000 -99 -99 -99 000 000 -99 -99 -99 -99 -99 -99 000 000 000 000 000 000 -99 -99 -99 -99 -99
-99 000 -99 000 000 000 -99 000 000 000 000 -99 000 000 -99 -99 000 -99 -99 000 000 000 000 000 000 000 -99 -99 -99 -99 -99
000 000 -99 000 000 -99 -99 000 -99 000 000 000 000 000 -99 -99 000 000 000 -99 000 000 000 000 000 -99 -99 -99 -99 -99 -99
000 000 000 000 000 -99 -99 -99 -99 000 000 000 000 -99 -99 -99 000 000 000 -99 000 -99 000 000 000 -99 -99 -99 -99 -99 -99
000 000 000 000 000 -99 -99 000 -99 000 000 000 000 -99 -99 -99 000 000 000 -99 000 -99 -99 -99 000 -99 -99 000 -99 000 -99
000 000 000 000 000 -99 -99 -99 000 000 000 000 000 000 000 000 000 000 000 -99 000 -99 -99 -99 000 -99 000 000 -99 000 -99
000 000 000 -99 000 -99 000 000 000 000 000 000 000 000 000 000 000 000 000 000 000 -99 -99 000 000 -99 000 000 -99 000 -99
000 000 000 000 000 -99 000 000 000 000 000 000 000 000 -99 000 000 -99 000 000 -99 -99 000 -99 000 000 000 000 000 000 000
000 000 000 000 000 -99 000 000 000 -99 000 000 -99 000 -99 000 000 -99 000 000 000 000 000 -99 000 000 000 000 000 000 000
000 -99 000 000 000 000 000 000 000 000 -99 -99 -99 000 000 000 000 000 000 000 -99 000 -99 -99 000 000 000 000 000 000 -99
-99 -99 000 000 000 -99 000 000 000 000 -99 -99 -99 000 000 000 000 000 000 000 -99 000 -99 -99 000 000 000 000 000 000 -99
000 -99 000 000 -99 -99 000 000 000 000 -99 -99 -99 000 000 000 000 000 000 000 -99 000 000 -99 000 000 000 000 000 000 -99
000 -99 -99 -99 -99 -99 000 000 000 000 -99 -99 -99 -99 000 000 000 000 000 -99 -99 000 000 -99 -99 -99 -99 -99 000 000 000
000 000 000 000 -99 -99 000 000 000 -99 -99 -99 -99 -99 000 000 000 000 000 -99 000 000 000 -99 000 -99 -99 -99 -99 000 000
000 000 000 000 -99 -99 -99 000 -99 -99 000 -99 -99 -99 000 000 000 000 000 000 000 000 000 -99 -99 -99 -99 -99 -99 -99 -99
000 000 000 000 000 000 -99 -99 000 -99 -99 -99 -99 -99 -99 000 000 000 000 000 000 000 000 -99 -99 -99 -99 -99 -99 -99 -99
000 000 000 000 000 000 -99 000 000 -99 -99 -99 -99 -99 000 000 000 000 000 000 000 000 000 -99 -99 -99 -99 -99 -99 -99 -99
000 000 000 000 000 000 -99 000 000 -99 000 -99 -99 000 000 000 000 000 000 000 000 000 000 -99 -99 -99 -99 -99 -99 -99 -99
000 000 000 000 000 000 000 000 000 -99 -99 -99 000 000 000 000 000 000 000 000 000 000 000 -99 -99 -99 -99 -99 -99 -99 -99
000 000 000 000 000 000 000 000 000 -99 -99 -99 000 000 000 000 000 000 000 000 000 000 000 -99 -99 -99 -99 -99 -99 -99 -99
000 000 000 000 000 000 000 000 000 -99 -99 -99 000 000 000 000 000 000 000 000 000 -99 -99 -99 -99 -99 -99 -99 -99 -99 -99
000 000 000 000 000 000 000 000 000 000 000 -99 -99 000 000 000 000 000 000 000 000 000 -99 -99 -99 -99 -99 -99 -99 -99 -99
000 000 000 000 000 000 000 000 000 000 -99 -99 000 000 000 000 000 000 000 000 000 000 -99 -99 -99 -99 -99 -99 -99 -99 -99
000 000 000 000 000 000 000 000 000 000 -99 -99 000 000 000 000 000 000 000 000 000 000 -99 -99 -99 -99 -99 -99 -99 -99 -99
000 000 000 000 000 000 -99 000 000 000 -99 -99 -99 -99 000 000 000 000 000 000 000 000 -99 -99 -99 -99 -99 -99 -99 -99 -99
000 000 000 000 000 000 -99 000 000 000 000 -99 -99 001 002 000 -99 -99 000 000 -99 000 -99 -99 -99 -99 -99 -99 -99 -99 -99
000 000 000 000 000 000 -99 -99 000 000 000 -99 -99 001 002 -99 -99 000 000 -99 -99 000 -99 -99 -99 -99 -99 -99 -99 -99 000
000 000 000 000 000 000 000 000 000 000 000 -99 -99 000 000 -99 -99 -99 -99 -99 -99 000 -99 -99 -99 -99 -99 000 -99 000 000
000 000 000 000 000 000 000 000 000 000 -99 -99 -99 000 000 -99 -99 -99 -99 -99 -99 -99 -99 -99 -99 -99 -99 000 000 000 000
000 000 000 000 000 000 000 000 000 000 -99 -99 000 000 000 -99 -99 -99 -99 000 000 -99 -99 -99 000 000 000 000 000 000 000
000 000 000 000 000 000 000 000 000 000 000 -99 000 000 000 000 000 -99 -99 000 000 -99 -99 -99 -99 000 000 000 000 000 000
000 000 000 000 000 000 000 000 000 000 000 000 000 000 000 000 -99 -99 -99 000 000 000 -99 -99 000 000 000 000 000 000 -99
000 000 000 000 000 000 000 000 000 000 -99 000 000 000 000 000 000 -99 -99 000 000 000 -99 000 000 000 000 000 000 000 -99
000 000 000 000 000 000 000 000 -99 -99 -99 000 000 000 000 000 000 000 -99 000 000 -99 -99 000 000 000 000 000 -99 000 -99
000 000 000 000 000 000 -99 -99 -99 -99 -99 000 000 000 000 000 000 000 -99 -99 -99 -99 -99 000 000 -99 -99 000 -99 -99 -99
000 000 000 000 000 000 -99 -99 -99 -99 000 000 000 000 000 000 000 000 000 -99 -99 000 000 000 000 000 -99 -99 -99 -99 000
000 000 000 000 000 000 000 000 000 000 000 000 000 000 000 000 000 000 000 -99 -99 -99 000 -99 -99 000 -99 -99 -99 -99 000
-99 000 000 000 -99 000 000 000 -99 000 000 000 000 000 000 000 000 000 000 -99 -99 000 -99 000 000 000 000 -99 -99 -99 000
000 000 -99 -99 -99 000 000 -99 000 000 000 000 000 000 000 000 -99 000 000 -99 -99 000 -99 000 000 000 000 000 -99 -99 000
000 000 -99 -99 000 000 000 -99 -99 000 000 000 000 000 000 000 000 -99 -99 -99 000 -99 -99 000 000 000 000 000 -99 -99 001
000 -99 -99 -99 -99 -99 -99 -99 000 000 000 000 000 000 000 -99 000 000 000 -99 000 -99 000 000 000 000 000 000 -99 000 000
000 -99 -99 -99 -99 -99 -99 -99 -99 000 000 000 000 000 000 -99 -99 -99 000 000 000 000 000 000 000 000 000 001 002 000 000
000 -99 -99 -99 -99 -99 -99 -99 000 000 000 000 000 000 000 -99 -99 000 000 000 000 000 000 000 000 000 001 001 001 000 000
000 -99 -99 -99 -99 -99 -99 -99 000 000 000 000 000 000 -99 -99 -99 000 000 000 000 000 000 000 001 001 000 000 000 000 -99
-99 -99 -99 -99 -99 -99 -99 -99 -99 -99 000 000 000 000 -99 -99 000 000 000 000 000 000 000 000 000 000 000 000 000 -99 -99
-99 -99 -99 -99 -99 -99 -99 -99 -99 000 000 000 000 000 -99 -99 000 000 000 000 000 002 000 000 000 -99 000 000 000 -99 -99
-99 -99 -99 -99 -99 -99 -99 -99 -99 000 000 -99 000 000 -99 000 000 000 000 000 000 002 000 000 -99 000 000 -99 -99 -99 -99
-99 -99 -99 -99 -99 -99 -99 -99 -99 -99 000 -99 000 -99 -99 -99 000 000 000 000 000 000 000 -99 -99 -99 -99 -99 -99 -99 -99
-99 -99 -99 -99 -99 -99 -99 -99 000 -99 -99 000 000 -99 -99 000 000 000 000 001 001 000 000 -99 -99 -99 -99 -99 -99 -99 -99
-99 -99 -99 -99 -99 -99 -99 000 -99 000 -99 -99 -99 -99 -99 000 000 000 000 001 000 000 -99 000 000 -99 -99 -99 -99 -99 -99
